100
100 100
1 70 982
2 70 142
3 69 906
4 69 217
5 69 90
6 69 717
7 68 97
8 68 599
9 67 183
10 67 851
11 66 651
12 66 375
13 66 284
14 65 418
15 64 108
16 64 288
17 63 355
18 63 43
19 63 712
20 63 945
21 62 929
22 61 717
23 61 450
24 60 154
25 60 85
26 60 474
27 59 253
28 58 733
29 58 850
30 58 803
31 58 599
32 57 677
33 56 320
34 56 268
35 56 883
36 56 931
37 56 728
38 56 502
39 55 944
40 55 378
41 55 335
42 55 637
43 54 343
44 53 799
45 53 707
46 52 986
47 52 534
48 51 125
49 51 697
50 51 985
51 51 45
52 51 611
53 51 54
54 50 934
55 49 344
56 49 10
57 49 455
58 48 559
59 48 127
60 47 661
61 46 273
62 45 916
63 45 829
64 43 766
65 43 349
66 41 774
67 40 92
68 39 427
69 39 474
70 39 837
71 38 371
72 38 586
73 38 898
74 36 371
75 35 273
76 34 77
77 34 790
78 34 538
79 34 94
80 33 144
81 32 504
82 32 986
83 32 887
84 31 903
85 29 223
86 29 424
87 29 161
88 29 754
89 28 233
90 28 285
91 28 921
92 26 114
93 26 931
94 25 214
95 25 209
96 23 786
97 22 642
98 21 36
99 20 109
100 20 310
